27.02-03.03
06.03-10.03
13.03-17.03
20.03-24.03
27.03-31.03
03.04-07.04
10.04-14.04
17.04-21.04
24.04-28.04
01.05-05.05
08.05-12.05
15.05-19.05
22.05-26.05
29.05-02.06
05.06-09.06
12.06-16.06
19.06-23.06